# Solution for model r3_t27_m5_6
# Finished Task: 26 / 27
# Makespan: 745.0, Total Distance: 1308.0, Total Time: 1.5923
# R O S F
0 0 4 0.0 0.0
1 1 12 0.0 0.0
2 2 27 0.0 0.0
3 1 28 527.0 562.0
4 0 29 73.0 105.0
5 2 15 627.0 661.0
6 1 3 459.0 491.0
7 1 -1 711.0 733.0
8 0 9 402.0 439.0
9 0 14 439.0 470.0
10 0 -1 712.0 745.0
11 0 24 238.0 276.0
12 1 21 255.0 293.0
13 0 10 627.0 663.0
14 0 13 544.0 570.0
15 2 -1 715.0 736.0
16 2 23 292.0 314.0
17 2 25 385.0 415.0
18 2 5 604.0 627.0
19 2 18 533.0 560.0
20 -1 -1 -1.0 -1.0
21 1 26 383.0 414.0
22 2 16 236.0 275.0
23 2 17 357.0 385.0
24 0 8 326.0 357.0
25 2 19 464.0 498.0
26 1 6 414.0 443.0
27 2 22 189.0 217.0
28 1 7 643.0 677.0
29 0 11 165.0 194.0
